Gurobi 12.0.1:   lim:time = 14400
  mip:bestbound = 1
Set parameter LogToConsole to value 1
  tech:outlev = 1
Set parameter InfUnbdInfo to value 1
Gurobi Optimizer version 12.0.1 build v12.0.1rc0 (win64 - Windows 11.0 (26100.2))

CPU model: Intel(R) Core(TM) i7-10700 CPU @ 2.90GHz, instruction set [SSE2|AVX|AVX2]
Thread count: 8 physical cores, 16 logical processors, using up to 16 threads

Non-default parameters:
TimeLimit  14400
InfUnbdInfo  1

Optimize a model with 445 rows, 837 columns and 4280 nonzeros
Model fingerprint: 0x403beab1
Model has 4 quadratic constraints
Variable types: 31 continuous, 806 integer (0 binary)
Coefficient statistics:
  Matrix range     [1e+00, 1e+05]
  QMatrix range    [1e+00, 1e+00]
  QLMatrix range   [2e+00, 2e+01]
  Objective range  [2e+00, 1e+02]
  Bounds range     [1e+00, 1e+02]
  RHS range        [1e+00, 1e+05]
  QRHS range       [1e+02, 1e+02]
Presolve removed 32 rows and 23 columns
Presolve time: 0.01s
Presolved: 833 rows, 1230 columns, 6179 nonzeros
Variable types: 18 continuous, 1212 integer (1053 binary)
Found heuristic solution: objective 925.7000000

Root relaxation: objective 1.635217e+02, 68 iterations, 0.00 seconds (0.00 work units)

    Nodes    |    Current Node    |     Objective Bounds      |     Work
 Expl Unexpl |  Obj  Depth IntInf | Incumbent    BestBd   Gap | It/Node Time

     0     0  163.52170    0   32  925.70000  163.52170  82.3%     -    0s
H    0     0                     771.3000000  163.52170  78.8%     -    0s
H    0     0                     681.3200000  163.52170  76.0%     -    0s
     0     0  227.14434    0   26  681.32000  227.14434  66.7%     -    0s
H    0     0                     661.3700000  227.14434  65.7%     -    0s
H    0     0                     636.5600000  227.14434  64.3%     -    0s
     0     0  234.76500    0   34  636.56000  234.76500  63.1%     -    0s
     0     0  235.20000    0   38  636.56000  235.20000  63.1%     -    0s
     0     0  241.33500    0   39  636.56000  241.33500  62.1%     -    0s
     0     0  241.33500    0   25  636.56000  241.33500  62.1%     -    0s
     0     2  241.93000    0   25  636.56000  241.93000  62.0%     -    0s
H   27    64                     533.8400000  241.93000  54.7%  23.1    0s
H   36    64                     449.0200000  241.93000  46.1%  20.8    0s
H  147   149                     444.5200000  241.93000  45.6%  13.9    0s
* 1389   819              20     425.2500000  250.66011  41.1%  10.2    0s
* 1538   844              34     384.9800000  250.68838  34.9%  10.2    0s
H 2586  1124                     380.5800000  254.71071  33.1%  10.6    0s
H 2819  1204                     378.5500000  256.36830  32.3%  11.5    1s
H 3880  1250                     378.1600000  260.28992  31.2%  11.6    1s
 29502  8795  340.48567   36   21  378.16000  304.09360  19.6%   9.7    5s
 41213 11169  328.13296   52  286  378.16000  309.45250  18.2%   9.5   10s
 41302 11242  309.45250   30   78  378.16000  309.45250  18.2%   9.6   15s
 52844 11558 infeasible   45       378.16000  309.45250  18.2%  10.0   20s
 74506 10345 infeasible   67       378.16000  311.65500  17.6%   9.8   25s
 89369 13321  337.61500   44   16  378.16000  316.41340  16.3%   9.8   30s
 100859 15502     cutoff   43       378.16000  319.57000  15.5%   9.8   35s
 115577 17811  341.77005   49   17  378.16000  322.58435  14.7%   9.7   40s
 130761 19706  357.31604   54   15  378.16000  325.79901  13.8%   9.7   45s
 144377 20690  349.72283   44    5  378.16000  328.64113  13.1%   9.7   50s
 156719 21567 infeasible   47       378.16000  331.14665  12.4%   9.7   55s
 168786 22222 infeasible   65       378.16000  333.17000  11.9%   9.7   60s
 180890 22542  356.28058   43    6  378.16000  335.17988  11.4%   9.7   65s
 194832 22706 infeasible   59       378.16000  337.37500  10.8%   9.6   70s
 208755 22891  361.34529   50   19  378.16000  339.46573  10.2%   9.6   75s
 220839 22964     cutoff   47       378.16000  341.07731  9.81%   9.6   80s
 235309 22440  343.23901   55    8  378.16000  343.16194  9.25%   9.6   85s
 246932 22003     cutoff   54       378.16000  344.71008  8.85%   9.6   90s
 259811 21165 infeasible   48       378.16000  346.35000  8.41%   9.6   95s
 272078 20106     cutoff   51       378.16000  348.47977  7.85%   9.6  100s
 283048 18904     cutoff   46       378.16000  350.36608  7.35%   9.6  105s
 293840 17216 infeasible   46       378.16000  352.52799  6.78%   9.5  110s
 304413 15300  355.01819   54    6  378.16000  354.66893  6.21%   9.5  115s
 315042 13147  371.46121   49    6  378.16000  357.28603  5.52%   9.5  120s
 327453 10095 infeasible   59       378.16000  360.24112  4.74%   9.5  125s
 338243  6686 infeasible   54       378.16000  363.62598  3.84%   9.5  130s
 351390   370     cutoff   55       378.16000  371.63885  1.72%   9.4  135s

Cutting planes:
  Learned: 27
  Gomory: 28
  Cover: 110
  Implied bound: 102
  Projected implied bound: 13
  Clique: 1
  MIR: 38
  StrongCG: 15
  Flow cover: 56
  GUB cover: 8
  Inf proof: 149
  Zero half: 29
  RLT: 154
  Relax-and-lift: 5
  BQP: 18

Explored 353767 nodes (3311132 simplex iterations) in 135.66 seconds (39.91 work units)
Thread count was 16 (of 16 available processors)

Solution count 10: 378.16 378.16 378.55 ... 636.56

Optimal solution found (tolerance 1.00e-04)
Best objective 3.781600000000e+02, best bound 3.781600000000e+02, gap 0.0000%

AMPL MP initial flat model has 837 variables (0 integer, 806 binary);
Objectives: 1 linear; 
Constraints:  445 linear; 4 quadratic;

AMPL MP final model has 837 variables (0 integer, 806 binary);
Objectives: 1 linear; 
Constraints:  445 linear; 4 quadratic;


-----RESULTS INFO-----
running_time:  135.813
TC.best_bound:  378.16
TC:  378.1600000000001
MIP Gap (%):  1.5031578924478527e-14
=== Vehicle Routes ===
Vehicle 1: 0 → 23
Vehicle 2: 0 → 2
Vehicle 2: 2 → 22
Vehicle 2: 3 → 4
Vehicle 2: 4 → 16
Vehicle 2: 14 → 3
Vehicle 2: 16 → 23
Vehicle 2: 22 → 14
Vehicle 3: 0 → 23
Vehicle 4: 0 → 15
Vehicle 4: 1 → 23
Vehicle 4: 15 → 1

=== Full Vehicle Routes ===
Vehicle 1: 0 → 0 (0<100)
Vehicle 2: 0 → 2 → 22 → 14 → 3 → 4 → 16 → 0 (91<100)
Vehicle 3: 0 → 0 (0<100)
Vehicle 4: 0 → 15 → 1 → 0 (54<100)
Arc used by MRT line: y variables:
Customer assigment to PL: u variables:
5 14
6 15
7 14
8 16
9 15
10 14
11 22
12 14
Node is served by regular vehicle: g variables:
1
2
3
4
22
14
15
16
Customer assigment to Home delivery: gm variables:
1
2
3
4
Node total demands: ntd variables:
1 18 1
2 20 1
3 19 1
4 2 1
9 0 0
10 0 0
11 0 0
12 0 0
19 0 0
20 0 0
21 0 0
22 4 1
13 0 0
14 38 1
15 36 1
16 8 1
17 0 0
18 0 0
Customer's demand delivered to PL: l variables:
5
6
7
8
9
10
11
12
Lockers load <= capacity:
0 <= 99
0 <= 92
0 <= 74
4 <= 92
0 <= 82
38 <= 93
36 <= 84
8 <= 84
0 <= 77
0 <= 75
